NAME : cutter.39046.tour
COMMENT : Length = 39046
COMMENT : Found by LKH [Keld Helsgaun] Thu Jan  3 11:12:15 2013
TYPE : TOUR
DIMENSION : 148
TOUR_SECTION
1
7
113
44
23
110
17
148
81
32
64
14
9
75
102
74
92
38
105
29
77
89
87
101
62
15
28
121
111
135
40
138
12
30
78
3
107
13
57
136
10
18
128
97
130
36
116
11
39
118
26
4
84
5
108
33
35
96
21
123
90
131
80
117
76
125
137
103
34
79
56
147
45
63
19
48
8
2
50
58
99
27
6
146
59
86
104
55
41
134
46
54
91
112
120
73
69
129
100
142
95
60
126
143
65
145
98
71
132
53
49
124
67
37
22
93
72
85
16
140
47
94
122
42
68
61
133
51
70
114
141
139
82
119
66
115
25
20
88
24
127
43
106
144
52
31
109
83
-1
EOF
